Maximize
  - 0.48046349248065 edge_0_2_0_0 - 0.4389839739741699 edge_0_3_0_0
   - 2.8146100740304 edge_0_7_0_0 - 0.30574286875512 edge_0_8_0_0
   - 0.4443162741332 edge_0_14_0_0 - 1.0587943764891 edge_0_17_0_0
   + 0.8212020488088873 edge_2_3_0_0 + 0.6241097049768276 edge_2_7_0_0
   + 0.3860655326748861 edge_2_8_0_0 - 0.8432979587425808 edge_2_10_0_0
   + 0.0365568579641583 edge_2_11_0_0 + 0.0553814443272763 edge_2_14_0_0
   + 0.1649378909090988 edge_2_16_0_0 + 0.146494414074899 edge_2_17_0_0
   - 0.1642948544848274 edge_2_18_0_0 - 0.3786989713621917 edge_2_19_0_0
   + 0.1914272648038741 edge_2_20_0_0 + 2.239402050920228 edge_2_21_0_0
   + 0.4061490067195299 edge_3_2_0_0 + 0.3331791328965145 edge_3_7_0_0
   - 0.7282158435338757 edge_3_10_0_0 - 0.8091737076494897 edge_3_13_0_0
   + 0.2412054977242893 edge_3_14_0_0 + 0.5196202989365748 edge_3_16_0_0
   - 0.0740640190776932 edge_3_17_0_0 - 1.08500650903082 edge_3_18_0_0
   - 0.3137550080197143 edge_3_19_0_0 + 0.2133496956736677 edge_3_20_0_0
   + 2.997330061290443 edge_3_21_0_0 - 0.8110049473627877 edge_7_2_0_0
   - 0.6204338169868882 edge_7_3_0_0 - 0.0780644201009119 edge_7_8_0_0
   - 0.3874291253029453 edge_7_11_0_0 - 0.3431690385599988 edge_7_14_0_0
   - 0.1112953603325347 edge_7_16_0_0 - 0.3049921544107518 edge_7_18_0_0
   - 0.188253435840148 edge_7_19_0_0 - 0.2040561433833017 edge_7_20_0_0
   + 0.9365627139493315 edge_8_2_0_0 + 0.6412744162928443 edge_8_7_0_0
   + 0.8431622236698997 edge_8_10_0_0 + 0.7118876061365498 edge_8_11_0_0
   + 0.16400083001679 edge_8_12_0_0 + 0.094650819262863 edge_8_13_0_0
   + 0.7417458918842394 edge_8_14_0_0 - 0.126454016533895 edge_8_16_0_0
   + 0.3925674781967922 edge_8_17_0_0 + 0.2903594316022559 edge_8_18_0_0
   + 0.1974567072858531 edge_8_19_0_0 + 0.5135278077330568 edge_8_20_0_0
   + 0.910299815408209 edge_10_8_0_0 + 0.049567655101271 edge_10_11_0_0
   - 0.2302289687387638 edge_10_12_0_0 + 0.0618956953239554 edge_10_13_0_0
   + 0.0311724266703069 edge_10_14_0_0 - 0.1714690222227288 edge_10_18_0_0
   + 0.1268420913124739 edge_10_21_0_0 - 0.5231109238004913 edge_11_2_0_0
   - 0.2762149078588449 edge_11_7_0_0 - 0.0836312268218941 edge_11_8_0_0
   + 0.0573631383325017 edge_11_10_0_0 + 0.0841130789420451 edge_11_12_0_0
   - 0.0376640103695277 edge_11_13_0_0 + 0.0153390548040193 edge_11_14_0_0
   - 0.2133807156274534 edge_11_19_0_0 - 0.0300720864389214 edge_12_11_0_0
   - 0.2146232030986556 edge_13_2_0_0 + 0.0998384340346264 edge_13_8_0_0
   + 0.3880798694358226 edge_13_10_0_0 + 0.360534937665798 edge_13_11_0_0
   + 1.443925285645344 edge_13_12_0_0 + 0.1864424598473539 edge_13_14_0_0
   - 0.2310205950695927 edge_13_18_0_0 - 0.2531380871975833 edge_13_19_0_0
   - 0.3808040503129396 edge_13_20_0_0 + 0.377830940090741 edge_13_21_0_0
   - 0.0232001497350524 edge_14_2_0_0 + 0.169848041727486 edge_14_3_0_0
   + 0.4111761589033978 edge_14_7_0_0 + 0.6601690957494842 edge_14_8_0_0
   + 0.2573089962729438 edge_14_10_0_0 + 2.102169003256417 edge_14_11_0_0
   + 0.6243375454348853 edge_14_12_0_0 + 0.9212428496043058 edge_14_13_0_0
   + 0.00211191566961017 edge_14_16_0_0 + 0.2118385100366322 edge_14_17_0_0
   + 0.4383613185754371 edge_14_18_0_0 + 0.6392538549034248 edge_14_19_0_0
   + 0.7143446938862955 edge_14_20_0_0 + 1.296807948249619 edge_14_21_0_0
   - 0.1257032226019702 edge_16_2_0_0 + 0.0016252146971043 edge_16_3_0_0
   + 0.4347204720148768 edge_16_7_0_0 - 0.2996385971811988 edge_16_8_0_0
   - 0.099289106073493 edge_16_10_0_0 - 0.1924072296396626 edge_16_11_0_0
   - 0.5476321399175077 edge_16_13_0_0 + 0.7785925641667535 edge_16_14_0_0
   + 0.4307629319200343 edge_16_17_0_0 + 0.0281435952081699 edge_16_18_0_0
   + 0.00741681864126857 edge_16_19_0_0 - 0.0415420796399572 edge_16_20_0_0
   + 2.105507669217974 edge_16_21_0_0 - 0.3411531172560449 edge_17_2_0_0
   + 0.8037478994560286 edge_17_7_0_0 + 0.141924245950954 edge_17_8_0_0
   + 0.8059651057489227 edge_17_10_0_0 + 0.0846487489165351 edge_17_11_0_0
   + 0.2046801752404434 edge_17_12_0_0 + 0.3670842713490081 edge_17_13_0_0
   + 0.7465455088961289 edge_17_14_0_0 + 0.8819159883261293 edge_17_16_0_0
   + 0.600656074528846 edge_17_18_0_0 + 1.136605677537567 edge_17_19_0_0
   + 1.189671182130122 edge_17_20_0_0 + 3.410478423788661 edge_17_21_0_0
   - 0.4897384348451039 edge_18_8_0_0 - 0.0460756581346874 edge_18_17_0_0
   + 0.5016907574194643 edge_18_19_0_0 - 0.2521992321426705 edge_18_20_0_0
   - 0.311438937714459 edge_19_11_0_0 - 0.9048195702326262 edge_19_16_0_0
   - 0.3614938227154904 edge_19_17_0_0 + 0.6901441401124175 edge_19_18_0_0
   + 0.3362215406061538 edge_19_20_0_0 - 0.0931485791889376 edge_20_2_0_0
   + 0.612159450649947 edge_20_7_0_0 + 0.065226343721974 edge_20_8_0_0
   + 0.2666967132014563 edge_20_10_0_0 + 0.1671464943761961 edge_20_11_0_0
   + 0.0224921276178207 edge_20_12_0_0 - 0.0155654396529536 edge_20_13_0_0
   + 0.599177671351963 edge_20_14_0_0 - 0.0116825740665163 edge_20_16_0_0
   + 0.1743267862839011 edge_20_17_0_0 + 1.716622302777156 edge_20_18_0_0
   + 2.082289366845498 edge_20_19_0_0 + 1.869020160814774 edge_20_21_0_0
Subject To
 one_parent_1: = 1
 consume_one_flow_unit_1: = 1
 one_parent_2: edge_0_2_0_0 + edge_3_2_0_0 + edge_7_2_0_0 + edge_8_2_0_0
   + edge_11_2_0_0 + edge_13_2_0_0 + edge_14_2_0_0 + edge_16_2_0_0
   + edge_17_2_0_0 + edge_20_2_0_0 = 1
 consume_one_flow_unit_2: flow_0_2_0_0 - flow_2_3_0_0 - flow_2_7_0_0
   - flow_2_8_0_0 - flow_2_10_0_0 - flow_2_11_0_0 - flow_2_14_0_0
   - flow_2_16_0_0 - flow_2_17_0_0 - flow_2_18_0_0 - flow_2_19_0_0
   - flow_2_20_0_0 - flow_2_21_0_0 + flow_3_2_0_0 + flow_7_2_0_0
   + flow_8_2_0_0 + flow_11_2_0_0 + flow_13_2_0_0 + flow_14_2_0_0
   + flow_16_2_0_0 + flow_17_2_0_0 + flow_20_2_0_0 = 1
 one_parent_3: edge_0_3_0_0 + edge_2_3_0_0 + edge_7_3_0_0 + edge_14_3_0_0
   + edge_16_3_0_0 = 1
 consume_one_flow_unit_3: flow_0_3_0_0 + flow_2_3_0_0 - flow_3_2_0_0
   - flow_3_7_0_0 - flow_3_10_0_0 - flow_3_13_0_0 - flow_3_14_0_0
   - flow_3_16_0_0 - flow_3_17_0_0 - flow_3_18_0_0 - flow_3_19_0_0
   - flow_3_20_0_0 - flow_3_21_0_0 + flow_7_3_0_0 + flow_14_3_0_0
   + flow_16_3_0_0 = 1
 one_parent_4: = 1
 consume_one_flow_unit_4: = 1
 one_parent_5: = 1
 consume_one_flow_unit_5: = 1
 one_parent_6: = 1
 consume_one_flow_unit_6: = 1
 one_parent_7: edge_0_7_0_0 + edge_2_7_0_0 + edge_3_7_0_0 + edge_8_7_0_0
   + edge_11_7_0_0 + edge_14_7_0_0 + edge_16_7_0_0 + edge_17_7_0_0
   + edge_20_7_0_0 = 1
 consume_one_flow_unit_7: flow_0_7_0_0 + flow_2_7_0_0 + flow_3_7_0_0
   - flow_7_2_0_0 - flow_7_3_0_0 - flow_7_8_0_0 - flow_7_11_0_0
   - flow_7_14_0_0 - flow_7_16_0_0 - flow_7_18_0_0 - flow_7_19_0_0
   - flow_7_20_0_0 + flow_8_7_0_0 + flow_11_7_0_0 + flow_14_7_0_0
   + flow_16_7_0_0 + flow_17_7_0_0 + flow_20_7_0_0 = 1
 one_parent_8: edge_0_8_0_0 + edge_2_8_0_0 + edge_7_8_0_0 + edge_10_8_0_0
   + edge_11_8_0_0 + edge_13_8_0_0 + edge_14_8_0_0 + edge_16_8_0_0
   + edge_17_8_0_0 + edge_18_8_0_0 + edge_20_8_0_0 = 1
 consume_one_flow_unit_8: flow_0_8_0_0 + flow_2_8_0_0 + flow_7_8_0_0
   - flow_8_2_0_0 - flow_8_7_0_0 - flow_8_10_0_0 - flow_8_11_0_0
   - flow_8_12_0_0 - flow_8_13_0_0 - flow_8_14_0_0 - flow_8_16_0_0
   - flow_8_17_0_0 - flow_8_18_0_0 - flow_8_19_0_0 - flow_8_20_0_0
   + flow_10_8_0_0 + flow_11_8_0_0 + flow_13_8_0_0 + flow_14_8_0_0
   + flow_16_8_0_0 + flow_17_8_0_0 + flow_18_8_0_0 + flow_20_8_0_0 = 1
 one_parent_9: = 1
 consume_one_flow_unit_9: = 1
 one_parent_10: edge_2_10_0_0 + edge_3_10_0_0 + edge_8_10_0_0
   + edge_11_10_0_0 + edge_13_10_0_0 + edge_14_10_0_0 + edge_16_10_0_0
   + edge_17_10_0_0 + edge_20_10_0_0 = 1
 consume_one_flow_unit_10: flow_2_10_0_0 + flow_3_10_0_0 + flow_8_10_0_0
   - flow_10_8_0_0 - flow_10_11_0_0 - flow_10_12_0_0 - flow_10_13_0_0
   - flow_10_14_0_0 - flow_10_18_0_0 - flow_10_21_0_0 + flow_11_10_0_0
   + flow_13_10_0_0 + flow_14_10_0_0 + flow_16_10_0_0 + flow_17_10_0_0
   + flow_20_10_0_0 = 1
 one_parent_11: edge_2_11_0_0 + edge_7_11_0_0 + edge_8_11_0_0
   + edge_10_11_0_0 + edge_12_11_0_0 + edge_13_11_0_0 + edge_14_11_0_0
   + edge_16_11_0_0 + edge_17_11_0_0 + edge_19_11_0_0 + edge_20_11_0_0 = 1
 consume_one_flow_unit_11: flow_2_11_0_0 + flow_7_11_0_0 + flow_8_11_0_0
   + flow_10_11_0_0 - flow_11_2_0_0 - flow_11_7_0_0 - flow_11_8_0_0
   - flow_11_10_0_0 - flow_11_12_0_0 - flow_11_13_0_0 - flow_11_14_0_0
   - flow_11_19_0_0 + flow_12_11_0_0 + flow_13_11_0_0 + flow_14_11_0_0
   + flow_16_11_0_0 + flow_17_11_0_0 + flow_19_11_0_0 + flow_20_11_0_0 = 1
 one_parent_12: edge_8_12_0_0 + edge_10_12_0_0 + edge_11_12_0_0
   + edge_13_12_0_0 + edge_14_12_0_0 + edge_17_12_0_0 + edge_20_12_0_0 = 1
 consume_one_flow_unit_12: flow_8_12_0_0 + flow_10_12_0_0 + flow_11_12_0_0
   - flow_12_11_0_0 + flow_13_12_0_0 + flow_14_12_0_0 + flow_17_12_0_0
   + flow_20_12_0_0 = 1
 one_parent_13: edge_3_13_0_0 + edge_8_13_0_0 + edge_10_13_0_0
   + edge_11_13_0_0 + edge_14_13_0_0 + edge_16_13_0_0 + edge_17_13_0_0
   + edge_20_13_0_0 = 1
 consume_one_flow_unit_13: flow_3_13_0_0 + flow_8_13_0_0 + flow_10_13_0_0
   + flow_11_13_0_0 - flow_13_2_0_0 - flow_13_8_0_0 - flow_13_10_0_0
   - flow_13_11_0_0 - flow_13_12_0_0 - flow_13_14_0_0 - flow_13_18_0_0
   - flow_13_19_0_0 - flow_13_20_0_0 - flow_13_21_0_0 + flow_14_13_0_0
   + flow_16_13_0_0 + flow_17_13_0_0 + flow_20_13_0_0 = 1
 one_parent_14: edge_0_14_0_0 + edge_2_14_0_0 + edge_3_14_0_0
   + edge_7_14_0_0 + edge_8_14_0_0 + edge_10_14_0_0 + edge_11_14_0_0
   + edge_13_14_0_0 + edge_16_14_0_0 + edge_17_14_0_0 + edge_20_14_0_0 = 1
 consume_one_flow_unit_14: flow_0_14_0_0 + flow_2_14_0_0 + flow_3_14_0_0
   + flow_7_14_0_0 + flow_8_14_0_0 + flow_10_14_0_0 + flow_11_14_0_0
   + flow_13_14_0_0 - flow_14_2_0_0 - flow_14_3_0_0 - flow_14_7_0_0
   - flow_14_8_0_0 - flow_14_10_0_0 - flow_14_11_0_0 - flow_14_12_0_0
   - flow_14_13_0_0 - flow_14_16_0_0 - flow_14_17_0_0 - flow_14_18_0_0
   - flow_14_19_0_0 - flow_14_20_0_0 - flow_14_21_0_0 + flow_16_14_0_0
   + flow_17_14_0_0 + flow_20_14_0_0 = 1
 one_parent_15: = 1
 consume_one_flow_unit_15: = 1
 one_parent_16: edge_2_16_0_0 + edge_3_16_0_0 + edge_7_16_0_0
   + edge_8_16_0_0 + edge_14_16_0_0 + edge_17_16_0_0 + edge_19_16_0_0
   + edge_20_16_0_0 = 1
 consume_one_flow_unit_16: flow_2_16_0_0 + flow_3_16_0_0 + flow_7_16_0_0
   + flow_8_16_0_0 + flow_14_16_0_0 - flow_16_2_0_0 - flow_16_3_0_0
   - flow_16_7_0_0 - flow_16_8_0_0 - flow_16_10_0_0 - flow_16_11_0_0
   - flow_16_13_0_0 - flow_16_14_0_0 - flow_16_17_0_0 - flow_16_18_0_0
   - flow_16_19_0_0 - flow_16_20_0_0 - flow_16_21_0_0 + flow_17_16_0_0
   + flow_19_16_0_0 + flow_20_16_0_0 = 1
 one_parent_17: edge_0_17_0_0 + edge_2_17_0_0 + edge_3_17_0_0
   + edge_8_17_0_0 + edge_14_17_0_0 + edge_16_17_0_0 + edge_18_17_0_0
   + edge_19_17_0_0 + edge_20_17_0_0 = 1
 consume_one_flow_unit_17: flow_0_17_0_0 + flow_2_17_0_0 + flow_3_17_0_0
   + flow_8_17_0_0 + flow_14_17_0_0 + flow_16_17_0_0 - flow_17_2_0_0
   - flow_17_7_0_0 - flow_17_8_0_0 - flow_17_10_0_0 - flow_17_11_0_0
   - flow_17_12_0_0 - flow_17_13_0_0 - flow_17_14_0_0 - flow_17_16_0_0
   - flow_17_18_0_0 - flow_17_19_0_0 - flow_17_20_0_0 - flow_17_21_0_0
   + flow_18_17_0_0 + flow_19_17_0_0 + flow_20_17_0_0 = 1
 one_parent_18: edge_2_18_0_0 + edge_3_18_0_0 + edge_7_18_0_0
   + edge_8_18_0_0 + edge_10_18_0_0 + edge_13_18_0_0 + edge_14_18_0_0
   + edge_16_18_0_0 + edge_17_18_0_0 + edge_19_18_0_0 + edge_20_18_0_0 = 1
 consume_one_flow_unit_18: flow_2_18_0_0 + flow_3_18_0_0 + flow_7_18_0_0
   + flow_8_18_0_0 + flow_10_18_0_0 + flow_13_18_0_0 + flow_14_18_0_0
   + flow_16_18_0_0 + flow_17_18_0_0 - flow_18_8_0_0 - flow_18_17_0_0
   - flow_18_19_0_0 - flow_18_20_0_0 + flow_19_18_0_0 + flow_20_18_0_0 = 1
 one_parent_19: edge_2_19_0_0 + edge_3_19_0_0 + edge_7_19_0_0
   + edge_8_19_0_0 + edge_11_19_0_0 + edge_13_19_0_0 + edge_14_19_0_0
   + edge_16_19_0_0 + edge_17_19_0_0 + edge_18_19_0_0 + edge_20_19_0_0 = 1
 consume_one_flow_unit_19: flow_2_19_0_0 + flow_3_19_0_0 + flow_7_19_0_0
   + flow_8_19_0_0 + flow_11_19_0_0 + flow_13_19_0_0 + flow_14_19_0_0
   + flow_16_19_0_0 + flow_17_19_0_0 + flow_18_19_0_0 - flow_19_11_0_0
   - flow_19_16_0_0 - flow_19_17_0_0 - flow_19_18_0_0 - flow_19_20_0_0
   + flow_20_19_0_0 = 1
 one_parent_20: edge_2_20_0_0 + edge_3_20_0_0 + edge_7_20_0_0
   + edge_8_20_0_0 + edge_13_20_0_0 + edge_14_20_0_0 + edge_16_20_0_0
   + edge_17_20_0_0 + edge_18_20_0_0 + edge_19_20_0_0 = 1
 consume_one_flow_unit_20: flow_2_20_0_0 + flow_3_20_0_0 + flow_7_20_0_0
   + flow_8_20_0_0 + flow_13_20_0_0 + flow_14_20_0_0 + flow_16_20_0_0
   + flow_17_20_0_0 + flow_18_20_0_0 + flow_19_20_0_0 - flow_20_2_0_0
   - flow_20_7_0_0 - flow_20_8_0_0 - flow_20_10_0_0 - flow_20_11_0_0
   - flow_20_12_0_0 - flow_20_13_0_0 - flow_20_14_0_0 - flow_20_16_0_0
   - flow_20_17_0_0 - flow_20_18_0_0 - flow_20_19_0_0 - flow_20_21_0_0 = 1
 one_parent_21: edge_2_21_0_0 + edge_3_21_0_0 + edge_10_21_0_0
   + edge_13_21_0_0 + edge_14_21_0_0 + edge_16_21_0_0 + edge_17_21_0_0
   + edge_20_21_0_0 = 1
 consume_one_flow_unit_21: flow_2_21_0_0 + flow_3_21_0_0 + flow_10_21_0_0
   + flow_13_21_0_0 + flow_14_21_0_0 + flow_16_21_0_0 + flow_17_21_0_0
   + flow_20_21_0_0 = 1
 root_flow: flow_0_2_0_0 + flow_0_3_0_0 + flow_0_7_0_0 + flow_0_8_0_0
   + flow_0_14_0_0 + flow_0_17_0_0 = 21
 inactive_no_flow_0_2_0_0: flow_0_2_0_0 - 1000 edge_0_2_0_0 <= 0
 inactive_no_flow_0_3_0_0: flow_0_3_0_0 - 1000 edge_0_3_0_0 <= 0
 inactive_no_flow_0_7_0_0: flow_0_7_0_0 - 1000 edge_0_7_0_0 <= 0
 inactive_no_flow_0_8_0_0: flow_0_8_0_0 - 1000 edge_0_8_0_0 <= 0
 inactive_no_flow_0_14_0_0: flow_0_14_0_0 - 1000 edge_0_14_0_0 <= 0
 inactive_no_flow_0_17_0_0: flow_0_17_0_0 - 1000 edge_0_17_0_0 <= 0
 inactive_no_flow_2_3_0_0: flow_2_3_0_0 - 1000 edge_2_3_0_0 <= 0
 inactive_no_flow_2_7_0_0: flow_2_7_0_0 - 1000 edge_2_7_0_0 <= 0
 inactive_no_flow_2_8_0_0: flow_2_8_0_0 - 1000 edge_2_8_0_0 <= 0
 inactive_no_flow_2_10_0_0: flow_2_10_0_0 - 1000 edge_2_10_0_0 <= 0
 inactive_no_flow_2_11_0_0: flow_2_11_0_0 - 1000 edge_2_11_0_0 <= 0
 inactive_no_flow_2_14_0_0: flow_2_14_0_0 - 1000 edge_2_14_0_0 <= 0
 inactive_no_flow_2_16_0_0: flow_2_16_0_0 - 1000 edge_2_16_0_0 <= 0
 inactive_no_flow_2_17_0_0: flow_2_17_0_0 - 1000 edge_2_17_0_0 <= 0
 inactive_no_flow_2_18_0_0: flow_2_18_0_0 - 1000 edge_2_18_0_0 <= 0
 inactive_no_flow_2_19_0_0: flow_2_19_0_0 - 1000 edge_2_19_0_0 <= 0
 inactive_no_flow_2_20_0_0: flow_2_20_0_0 - 1000 edge_2_20_0_0 <= 0
 inactive_no_flow_2_21_0_0: flow_2_21_0_0 - 1000 edge_2_21_0_0 <= 0
 inactive_no_flow_3_2_0_0: flow_3_2_0_0 - 1000 edge_3_2_0_0 <= 0
 inactive_no_flow_3_7_0_0: flow_3_7_0_0 - 1000 edge_3_7_0_0 <= 0
 inactive_no_flow_3_10_0_0: flow_3_10_0_0 - 1000 edge_3_10_0_0 <= 0
 inactive_no_flow_3_13_0_0: flow_3_13_0_0 - 1000 edge_3_13_0_0 <= 0
 inactive_no_flow_3_14_0_0: flow_3_14_0_0 - 1000 edge_3_14_0_0 <= 0
 inactive_no_flow_3_16_0_0: flow_3_16_0_0 - 1000 edge_3_16_0_0 <= 0
 inactive_no_flow_3_17_0_0: flow_3_17_0_0 - 1000 edge_3_17_0_0 <= 0
 inactive_no_flow_3_18_0_0: flow_3_18_0_0 - 1000 edge_3_18_0_0 <= 0
 inactive_no_flow_3_19_0_0: flow_3_19_0_0 - 1000 edge_3_19_0_0 <= 0
 inactive_no_flow_3_20_0_0: flow_3_20_0_0 - 1000 edge_3_20_0_0 <= 0
 inactive_no_flow_3_21_0_0: flow_3_21_0_0 - 1000 edge_3_21_0_0 <= 0
 inactive_no_flow_7_2_0_0: flow_7_2_0_0 - 1000 edge_7_2_0_0 <= 0
 inactive_no_flow_7_3_0_0: flow_7_3_0_0 - 1000 edge_7_3_0_0 <= 0
 inactive_no_flow_7_8_0_0: flow_7_8_0_0 - 1000 edge_7_8_0_0 <= 0
 inactive_no_flow_7_11_0_0: flow_7_11_0_0 - 1000 edge_7_11_0_0 <= 0
 inactive_no_flow_7_14_0_0: flow_7_14_0_0 - 1000 edge_7_14_0_0 <= 0
 inactive_no_flow_7_16_0_0: flow_7_16_0_0 - 1000 edge_7_16_0_0 <= 0
 inactive_no_flow_7_18_0_0: flow_7_18_0_0 - 1000 edge_7_18_0_0 <= 0
 inactive_no_flow_7_19_0_0: flow_7_19_0_0 - 1000 edge_7_19_0_0 <= 0
 inactive_no_flow_7_20_0_0: flow_7_20_0_0 - 1000 edge_7_20_0_0 <= 0
 inactive_no_flow_8_2_0_0: flow_8_2_0_0 - 1000 edge_8_2_0_0 <= 0
 inactive_no_flow_8_7_0_0: flow_8_7_0_0 - 1000 edge_8_7_0_0 <= 0
 inactive_no_flow_8_10_0_0: flow_8_10_0_0 - 1000 edge_8_10_0_0 <= 0
 inactive_no_flow_8_11_0_0: flow_8_11_0_0 - 1000 edge_8_11_0_0 <= 0
 inactive_no_flow_8_12_0_0: flow_8_12_0_0 - 1000 edge_8_12_0_0 <= 0
 inactive_no_flow_8_13_0_0: flow_8_13_0_0 - 1000 edge_8_13_0_0 <= 0
 inactive_no_flow_8_14_0_0: flow_8_14_0_0 - 1000 edge_8_14_0_0 <= 0
 inactive_no_flow_8_16_0_0: flow_8_16_0_0 - 1000 edge_8_16_0_0 <= 0
 inactive_no_flow_8_17_0_0: flow_8_17_0_0 - 1000 edge_8_17_0_0 <= 0
 inactive_no_flow_8_18_0_0: flow_8_18_0_0 - 1000 edge_8_18_0_0 <= 0
 inactive_no_flow_8_19_0_0: flow_8_19_0_0 - 1000 edge_8_19_0_0 <= 0
 inactive_no_flow_8_20_0_0: flow_8_20_0_0 - 1000 edge_8_20_0_0 <= 0
 inactive_no_flow_10_8_0_0: flow_10_8_0_0 - 1000 edge_10_8_0_0 <= 0
 inactive_no_flow_10_11_0_0: flow_10_11_0_0 - 1000 edge_10_11_0_0 <= 0
 inactive_no_flow_10_12_0_0: flow_10_12_0_0 - 1000 edge_10_12_0_0 <= 0
 inactive_no_flow_10_13_0_0: flow_10_13_0_0 - 1000 edge_10_13_0_0 <= 0
 inactive_no_flow_10_14_0_0: flow_10_14_0_0 - 1000 edge_10_14_0_0 <= 0
 inactive_no_flow_10_18_0_0: flow_10_18_0_0 - 1000 edge_10_18_0_0 <= 0
 inactive_no_flow_10_21_0_0: flow_10_21_0_0 - 1000 edge_10_21_0_0 <= 0
 inactive_no_flow_11_2_0_0: flow_11_2_0_0 - 1000 edge_11_2_0_0 <= 0
 inactive_no_flow_11_7_0_0: flow_11_7_0_0 - 1000 edge_11_7_0_0 <= 0
 inactive_no_flow_11_8_0_0: flow_11_8_0_0 - 1000 edge_11_8_0_0 <= 0
 inactive_no_flow_11_10_0_0: flow_11_10_0_0 - 1000 edge_11_10_0_0 <= 0
 inactive_no_flow_11_12_0_0: flow_11_12_0_0 - 1000 edge_11_12_0_0 <= 0
 inactive_no_flow_11_13_0_0: flow_11_13_0_0 - 1000 edge_11_13_0_0 <= 0
 inactive_no_flow_11_14_0_0: flow_11_14_0_0 - 1000 edge_11_14_0_0 <= 0
 inactive_no_flow_11_19_0_0: flow_11_19_0_0 - 1000 edge_11_19_0_0 <= 0
 inactive_no_flow_12_11_0_0: flow_12_11_0_0 - 1000 edge_12_11_0_0 <= 0
 inactive_no_flow_13_2_0_0: flow_13_2_0_0 - 1000 edge_13_2_0_0 <= 0
 inactive_no_flow_13_8_0_0: flow_13_8_0_0 - 1000 edge_13_8_0_0 <= 0
 inactive_no_flow_13_10_0_0: flow_13_10_0_0 - 1000 edge_13_10_0_0 <= 0
 inactive_no_flow_13_11_0_0: flow_13_11_0_0 - 1000 edge_13_11_0_0 <= 0
 inactive_no_flow_13_12_0_0: flow_13_12_0_0 - 1000 edge_13_12_0_0 <= 0
 inactive_no_flow_13_14_0_0: flow_13_14_0_0 - 1000 edge_13_14_0_0 <= 0
 inactive_no_flow_13_18_0_0: flow_13_18_0_0 - 1000 edge_13_18_0_0 <= 0
 inactive_no_flow_13_19_0_0: flow_13_19_0_0 - 1000 edge_13_19_0_0 <= 0
 inactive_no_flow_13_20_0_0: flow_13_20_0_0 - 1000 edge_13_20_0_0 <= 0
 inactive_no_flow_13_21_0_0: flow_13_21_0_0 - 1000 edge_13_21_0_0 <= 0
 inactive_no_flow_14_2_0_0: flow_14_2_0_0 - 1000 edge_14_2_0_0 <= 0
 inactive_no_flow_14_3_0_0: flow_14_3_0_0 - 1000 edge_14_3_0_0 <= 0
 inactive_no_flow_14_7_0_0: flow_14_7_0_0 - 1000 edge_14_7_0_0 <= 0
 inactive_no_flow_14_8_0_0: flow_14_8_0_0 - 1000 edge_14_8_0_0 <= 0
 inactive_no_flow_14_10_0_0: flow_14_10_0_0 - 1000 edge_14_10_0_0 <= 0
 inactive_no_flow_14_11_0_0: flow_14_11_0_0 - 1000 edge_14_11_0_0 <= 0
 inactive_no_flow_14_12_0_0: flow_14_12_0_0 - 1000 edge_14_12_0_0 <= 0
 inactive_no_flow_14_13_0_0: flow_14_13_0_0 - 1000 edge_14_13_0_0 <= 0
 inactive_no_flow_14_16_0_0: flow_14_16_0_0 - 1000 edge_14_16_0_0 <= 0
 inactive_no_flow_14_17_0_0: flow_14_17_0_0 - 1000 edge_14_17_0_0 <= 0
 inactive_no_flow_14_18_0_0: flow_14_18_0_0 - 1000 edge_14_18_0_0 <= 0
 inactive_no_flow_14_19_0_0: flow_14_19_0_0 - 1000 edge_14_19_0_0 <= 0
 inactive_no_flow_14_20_0_0: flow_14_20_0_0 - 1000 edge_14_20_0_0 <= 0
 inactive_no_flow_14_21_0_0: flow_14_21_0_0 - 1000 edge_14_21_0_0 <= 0
 inactive_no_flow_16_2_0_0: flow_16_2_0_0 - 1000 edge_16_2_0_0 <= 0
 inactive_no_flow_16_3_0_0: flow_16_3_0_0 - 1000 edge_16_3_0_0 <= 0
 inactive_no_flow_16_7_0_0: flow_16_7_0_0 - 1000 edge_16_7_0_0 <= 0
 inactive_no_flow_16_8_0_0: flow_16_8_0_0 - 1000 edge_16_8_0_0 <= 0
 inactive_no_flow_16_10_0_0: flow_16_10_0_0 - 1000 edge_16_10_0_0 <= 0
 inactive_no_flow_16_11_0_0: flow_16_11_0_0 - 1000 edge_16_11_0_0 <= 0
 inactive_no_flow_16_13_0_0: flow_16_13_0_0 - 1000 edge_16_13_0_0 <= 0
 inactive_no_flow_16_14_0_0: flow_16_14_0_0 - 1000 edge_16_14_0_0 <= 0
 inactive_no_flow_16_17_0_0: flow_16_17_0_0 - 1000 edge_16_17_0_0 <= 0
 inactive_no_flow_16_18_0_0: flow_16_18_0_0 - 1000 edge_16_18_0_0 <= 0
 inactive_no_flow_16_19_0_0: flow_16_19_0_0 - 1000 edge_16_19_0_0 <= 0
 inactive_no_flow_16_20_0_0: flow_16_20_0_0 - 1000 edge_16_20_0_0 <= 0
 inactive_no_flow_16_21_0_0: flow_16_21_0_0 - 1000 edge_16_21_0_0 <= 0
 inactive_no_flow_17_2_0_0: flow_17_2_0_0 - 1000 edge_17_2_0_0 <= 0
 inactive_no_flow_17_7_0_0: flow_17_7_0_0 - 1000 edge_17_7_0_0 <= 0
 inactive_no_flow_17_8_0_0: flow_17_8_0_0 - 1000 edge_17_8_0_0 <= 0
 inactive_no_flow_17_10_0_0: flow_17_10_0_0 - 1000 edge_17_10_0_0 <= 0
 inactive_no_flow_17_11_0_0: flow_17_11_0_0 - 1000 edge_17_11_0_0 <= 0
 inactive_no_flow_17_12_0_0: flow_17_12_0_0 - 1000 edge_17_12_0_0 <= 0
 inactive_no_flow_17_13_0_0: flow_17_13_0_0 - 1000 edge_17_13_0_0 <= 0
 inactive_no_flow_17_14_0_0: flow_17_14_0_0 - 1000 edge_17_14_0_0 <= 0
 inactive_no_flow_17_16_0_0: flow_17_16_0_0 - 1000 edge_17_16_0_0 <= 0
 inactive_no_flow_17_18_0_0: flow_17_18_0_0 - 1000 edge_17_18_0_0 <= 0
 inactive_no_flow_17_19_0_0: flow_17_19_0_0 - 1000 edge_17_19_0_0 <= 0
 inactive_no_flow_17_20_0_0: flow_17_20_0_0 - 1000 edge_17_20_0_0 <= 0
 inactive_no_flow_17_21_0_0: flow_17_21_0_0 - 1000 edge_17_21_0_0 <= 0
 inactive_no_flow_18_8_0_0: flow_18_8_0_0 - 1000 edge_18_8_0_0 <= 0
 inactive_no_flow_18_17_0_0: flow_18_17_0_0 - 1000 edge_18_17_0_0 <= 0
 inactive_no_flow_18_19_0_0: flow_18_19_0_0 - 1000 edge_18_19_0_0 <= 0
 inactive_no_flow_18_20_0_0: flow_18_20_0_0 - 1000 edge_18_20_0_0 <= 0
 inactive_no_flow_19_11_0_0: flow_19_11_0_0 - 1000 edge_19_11_0_0 <= 0
 inactive_no_flow_19_16_0_0: flow_19_16_0_0 - 1000 edge_19_16_0_0 <= 0
 inactive_no_flow_19_17_0_0: flow_19_17_0_0 - 1000 edge_19_17_0_0 <= 0
 inactive_no_flow_19_18_0_0: flow_19_18_0_0 - 1000 edge_19_18_0_0 <= 0
 inactive_no_flow_19_20_0_0: flow_19_20_0_0 - 1000 edge_19_20_0_0 <= 0
 inactive_no_flow_20_2_0_0: flow_20_2_0_0 - 1000 edge_20_2_0_0 <= 0
 inactive_no_flow_20_7_0_0: flow_20_7_0_0 - 1000 edge_20_7_0_0 <= 0
 inactive_no_flow_20_8_0_0: flow_20_8_0_0 - 1000 edge_20_8_0_0 <= 0
 inactive_no_flow_20_10_0_0: flow_20_10_0_0 - 1000 edge_20_10_0_0 <= 0
 inactive_no_flow_20_11_0_0: flow_20_11_0_0 - 1000 edge_20_11_0_0 <= 0
 inactive_no_flow_20_12_0_0: flow_20_12_0_0 - 1000 edge_20_12_0_0 <= 0
 inactive_no_flow_20_13_0_0: flow_20_13_0_0 - 1000 edge_20_13_0_0 <= 0
 inactive_no_flow_20_14_0_0: flow_20_14_0_0 - 1000 edge_20_14_0_0 <= 0
 inactive_no_flow_20_16_0_0: flow_20_16_0_0 - 1000 edge_20_16_0_0 <= 0
 inactive_no_flow_20_17_0_0: flow_20_17_0_0 - 1000 edge_20_17_0_0 <= 0
 inactive_no_flow_20_18_0_0: flow_20_18_0_0 - 1000 edge_20_18_0_0 <= 0
 inactive_no_flow_20_19_0_0: flow_20_19_0_0 - 1000 edge_20_19_0_0 <= 0
 inactive_no_flow_20_21_0_0: flow_20_21_0_0 - 1000 edge_20_21_0_0 <= 0
Bounds
Binaries
 edge_0_2_0_0 edge_0_3_0_0 edge_0_7_0_0 edge_0_8_0_0 edge_0_14_0_0
 edge_0_17_0_0 edge_2_3_0_0 edge_2_7_0_0 edge_2_8_0_0 edge_2_10_0_0
 edge_2_11_0_0 edge_2_14_0_0 edge_2_16_0_0 edge_2_17_0_0 edge_2_18_0_0
 edge_2_19_0_0 edge_2_20_0_0 edge_2_21_0_0 edge_3_2_0_0 edge_3_7_0_0
 edge_3_10_0_0 edge_3_13_0_0 edge_3_14_0_0 edge_3_16_0_0 edge_3_17_0_0
 edge_3_18_0_0 edge_3_19_0_0 edge_3_20_0_0 edge_3_21_0_0 edge_7_2_0_0
 edge_7_3_0_0 edge_7_8_0_0 edge_7_11_0_0 edge_7_14_0_0 edge_7_16_0_0
 edge_7_18_0_0 edge_7_19_0_0 edge_7_20_0_0 edge_8_2_0_0 edge_8_7_0_0
 edge_8_10_0_0 edge_8_11_0_0 edge_8_12_0_0 edge_8_13_0_0 edge_8_14_0_0
 edge_8_16_0_0 edge_8_17_0_0 edge_8_18_0_0 edge_8_19_0_0 edge_8_20_0_0
 edge_10_8_0_0 edge_10_11_0_0 edge_10_12_0_0 edge_10_13_0_0 edge_10_14_0_0
 edge_10_18_0_0 edge_10_21_0_0 edge_11_2_0_0 edge_11_7_0_0 edge_11_8_0_0
 edge_11_10_0_0 edge_11_12_0_0 edge_11_13_0_0 edge_11_14_0_0 edge_11_19_0_0
 edge_12_11_0_0 edge_13_2_0_0 edge_13_8_0_0 edge_13_10_0_0 edge_13_11_0_0
 edge_13_12_0_0 edge_13_14_0_0 edge_13_18_0_0 edge_13_19_0_0 edge_13_20_0_0
 edge_13_21_0_0 edge_14_2_0_0 edge_14_3_0_0 edge_14_7_0_0 edge_14_8_0_0
 edge_14_10_0_0 edge_14_11_0_0 edge_14_12_0_0 edge_14_13_0_0 edge_14_16_0_0
 edge_14_17_0_0 edge_14_18_0_0 edge_14_19_0_0 edge_14_20_0_0 edge_14_21_0_0
 edge_16_2_0_0 edge_16_3_0_0 edge_16_7_0_0 edge_16_8_0_0 edge_16_10_0_0
 edge_16_11_0_0 edge_16_13_0_0 edge_16_14_0_0 edge_16_17_0_0 edge_16_18_0_0
 edge_16_19_0_0 edge_16_20_0_0 edge_16_21_0_0 edge_17_2_0_0 edge_17_7_0_0
 edge_17_8_0_0 edge_17_10_0_0 edge_17_11_0_0 edge_17_12_0_0 edge_17_13_0_0
 edge_17_14_0_0 edge_17_16_0_0 edge_17_18_0_0 edge_17_19_0_0 edge_17_20_0_0
 edge_17_21_0_0 edge_18_8_0_0 edge_18_17_0_0 edge_18_19_0_0 edge_18_20_0_0
 edge_19_11_0_0 edge_19_16_0_0 edge_19_17_0_0 edge_19_18_0_0 edge_19_20_0_0
 edge_20_2_0_0 edge_20_7_0_0 edge_20_8_0_0 edge_20_10_0_0 edge_20_11_0_0
 edge_20_12_0_0 edge_20_13_0_0 edge_20_14_0_0 edge_20_16_0_0 edge_20_17_0_0
 edge_20_18_0_0 edge_20_19_0_0 edge_20_21_0_0
End
